
Starting CP-SAT solver v9.15.6755
Parameters: random_seed: 2026074047 max_time_in_seconds: 2500 log_search_progress: true cp_model_presolve: true linearization_level: 2 num_search_workers: 4 cp_model_probing_level: 2 symmetry_level: 2

Initial satisfaction model '': (model_fingerprint: 0x28d918bfe9a66c96)
#Variables: 724 (608 primary variables)
  - 724 Booleans in [0,1]
#kBoolAnd: 110 (#enforced: 110) (#literals: 330)
#kBoolOr: 110 (#enforced: 110) (#literals: 220)
#kExactlyOne: 87 (#literals: 261)
#kLinear1: 32 (#enforced: 6)
#kLinear2: 336 (#enforced: 336) (#complex_domain: 110)
#kLinear3: 1'600 (#enforced: 6)
#kLinearN: 1'132 (#enforced: 243) (#terms: 9'111)

Starting presolve at 0.00s
  6.66e-04s  0.00e+00d  [DetectDominanceRelations] 
  8.66e-03s  0.00e+00d  [PresolveToFixPoint] #num_loops=3 #num_dual_strengthening=1 
  3.48e-05s  0.00e+00d  [ExtractEncodingFromLinear] #potential_supersets=86 
  2.96e-04s  0.00e+00d  [DetectDuplicateColumns] 
  9.77e-05s  0.00e+00d  [DetectDuplicateConstraints] #duplicates=5 
[Symmetry] Graph for symmetry has 4'868 nodes and 15'698 arcs.
[Symmetry] Symmetry computation done. time: 0.00123774 dtime: 0.00180278
[SAT presolve] num removable Booleans: 220 / 626
[SAT presolve] num trivial clauses: 0
[SAT presolve] [0s] clauses:2'728 literals:7'422 vars:506 one_side_vars:66 simple_definition:1 singleton_clauses:0
[SAT presolve] [0.00021866s] clauses:2'727 literals:7'415 vars:506 one_side_vars:66 simple_definition:1 singleton_clauses:0
[SAT presolve] [0.000554709s] clauses:2'495 literals:7'080 vars:394 one_side_vars:66 simple_definition:2 singleton_clauses:0
  1.18e-04s  0.00e+00d  [DetectDuplicateConstraintsWithDifferentEnforcements] 
  6.16e-03s  3.45e-03d  [Probe] #probed=1'308 #fixed_bools=8 #equiv=7 #new_binary_clauses=1'119 
  7.22e-04s  6.63e-04d  [MaxClique] Merged 689 constraints with 1'520 literals into 598 constraints with 1'373 literals
  8.75e-04s  0.00e+00d  [DetectDominanceRelations] 
  3.16e-03s  0.00e+00d  [PresolveToFixPoint] #num_loops=1 #num_dual_strengthening=1 
  1.20e-03s  0.00e+00d  [ProcessAtMostOneAndLinear] 
  1.11e-04s  0.00e+00d  [DetectDuplicateConstraints] #duplicates=4 
  9.45e-05s  0.00e+00d  [DetectDuplicateConstraintsWithDifferentEnforcements] 
  3.78e-03s  1.14e-04d  [DetectDominatedLinearConstraints] #relevant_constraints=832 #num_inclusions=556 #num_redundant=7 
  1.20e-04s  0.00e+00d  [DetectDifferentVariables] 
  7.83e-04s  9.00e-05d  [ProcessSetPPC] #relevant_constraints=3'242 #num_inclusions=287 
  2.87e-04s  3.57e-05d  [TransformClausesToExactlyOne] #num_amos=629 #num_clauses=1'805 #num_transformed=5 #num_checked=1'805 
  6.76e-05s  0.00e+00d  [DetectEncodedComplexDomains] 
  3.15e-05s  0.00e+00d  [FindAlmostIdenticalLinearConstraints] 
  9.72e-04s  1.48e-03d  [FindBigAtMostOneAndLinearOverlap] 
  1.44e-03s  1.14e-03d  [FindBigVerticalLinearOverlap] #blocks=5 #saved_nz=230 
  3.28e-04s  5.49e-04d  [FindBigHorizontalLinearOverlap] #linears=456 
  3.52e-04s  2.82e-05d  [MergeClauses] #num_collisions=5 #num_merges=5 #num_saved_literals=10 
  8.69e-04s  0.00e+00d  [DetectDominanceRelations] 
  3.33e-03s  0.00e+00d  [PresolveToFixPoint] #num_loops=2 #num_dual_strengthening=1 
  8.51e-04s  0.00e+00d  [DetectDominanceRelations] 
  3.04e-03s  0.00e+00d  [PresolveToFixPoint] #num_loops=1 #num_dual_strengthening=1 
  2.16e-04s  0.00e+00d  [DetectDuplicateColumns] 
  1.14e-04s  0.00e+00d  [DetectDuplicateConstraints] 
[Symmetry] Graph for symmetry has 4'694 nodes and 14'489 arcs.
[Symmetry] Symmetry computation done. time: 0.00107485 dtime: 0.00153097
[SAT presolve] num removable Booleans: 102 / 514
[SAT presolve] num trivial clauses: 0
[SAT presolve] [0s] clauses:2'429 literals:6'937 vars:489 one_side_vars:156 simple_definition:23 singleton_clauses:0
[SAT presolve] [0.000241122s] clauses:2'424 literals:6'766 vars:489 one_side_vars:158 simple_definition:93 singleton_clauses:0
[SAT presolve] [0.000385893s] clauses:2'231 literals:6'318 vars:485 one_side_vars:195 simple_definition:75 singleton_clauses:0
  1.54e-04s  0.00e+00d  [DetectDuplicateConstraintsWithDifferentEnforcements] 
  6.09e-03s  2.23e-03d  [Probe] #probed=1'330 #new_binary_clauses=943 
  4.98e-04s  4.37e-04d  [MaxClique] Merged 535 constraints with 1'186 literals into 523 constraints with 1'173 literals
  8.46e-04s  0.00e+00d  [DetectDominanceRelations] 
  3.10e-03s  0.00e+00d  [PresolveToFixPoint] #num_loops=1 #num_dual_strengthening=1 
  1.12e-03s  0.00e+00d  [ProcessAtMostOneAndLinear] 
  1.08e-04s  0.00e+00d  [DetectDuplicateConstraints] 
  1.00e-04s  0.00e+00d  [DetectDuplicateConstraintsWithDifferentEnforcements] 
  8.29e-04s  5.76e-05d  [DetectDominatedLinearConstraints] #relevant_constraints=816 #num_inclusions=312 
  1.32e-04s  0.00e+00d  [DetectDifferentVariables] 
  7.59e-04s  7.38e-05d  [ProcessSetPPC] #relevant_constraints=3'146 #num_inclusions=107 
  2.89e-04s  3.34e-05d  [TransformClausesToExactlyOne] #num_amos=519 #num_clauses=1'748 #num_checked=1'748 
  1.53e-04s  0.00e+00d  [DetectEncodedComplexDomains] 
  4.03e-05s  0.00e+00d  [FindAlmostIdenticalLinearConstraints] 
  8.37e-04s  1.15e-03d  [FindBigAtMostOneAndLinearOverlap] 
  1.28e-03s  9.87e-04d  [FindBigVerticalLinearOverlap] #blocks=3 #saved_nz=110 
  1.86e-04s  2.65e-04d  [FindBigHorizontalLinearOverlap] #linears=453 
  3.35e-04s  2.67e-05d  [MergeClauses] #num_collisions=74 #num_merges=74 #num_saved_literals=180 
  6.29e-04s  0.00e+00d  [DetectDominanceRelations] 
  3.07e-03s  0.00e+00d  [PresolveToFixPoint] #num_loops=2 #num_dual_strengthening=1 
  6.05e-04s  0.00e+00d  [DetectDominanceRelations] 
  2.79e-03s  0.00e+00d  [PresolveToFixPoint] #num_loops=1 #num_dual_strengthening=1 
  2.28e-04s  0.00e+00d  [DetectDuplicateColumns] 
  9.94e-05s  0.00e+00d  [DetectDuplicateConstraints] 
[Symmetry] Graph for symmetry has 4'479 nodes and 13'522 arcs.
[Symmetry] Symmetry computation done. time: 0.000974484 dtime: 0.00141238
[SAT presolve] num removable Booleans: 98 / 516
[SAT presolve] num trivial clauses: 0
[SAT presolve] [0s] clauses:2'231 literals:6'330 vars:493 one_side_vars:195 simple_definition:79 singleton_clauses:0
[SAT presolve] [0.000199704s] clauses:2'229 literals:6'322 vars:493 one_side_vars:195 simple_definition:79 singleton_clauses:0
[SAT presolve] [0.000276708s] clauses:2'229 literals:6'322 vars:493 one_side_vars:195 simple_definition:79 singleton_clauses:0
  1.58e-04s  0.00e+00d  [DetectDuplicateConstraintsWithDifferentEnforcements] 
  5.90e-03s  2.22e-03d  [Probe] #probed=1'342 #new_binary_clauses=979 
  5.87e-04s  4.59e-04d  [MaxClique] 
  6.69e-04s  0.00e+00d  [DetectDominanceRelations] 
  2.95e-03s  0.00e+00d  [PresolveToFixPoint] #num_loops=1 #num_dual_strengthening=1 
  1.12e-03s  0.00e+00d  [ProcessAtMostOneAndLinear] 
  1.21e-04s  0.00e+00d  [DetectDuplicateConstraints] 
  1.18e-04s  0.00e+00d  [DetectDuplicateConstraintsWithDifferentEnforcements] 
  6.20e-04s  4.98e-05d  [DetectDominatedLinearConstraints] #relevant_constraints=813 #num_inclusions=265 
  1.29e-04s  0.00e+00d  [DetectDifferentVariables] 
  7.55e-04s  7.21e-05d  [ProcessSetPPC] #relevant_constraints=3'156 #num_inclusions=97 
  2.97e-04s  3.37e-05d  [TransformClausesToExactlyOne] #num_amos=524 #num_clauses=1'760 #num_checked=1'760 
  1.57e-04s  0.00e+00d  [DetectEncodedComplexDomains] 
  4.86e-05s  2.00e-07d  [FindAlmostIdenticalLinearConstraints] #num_tested_pairs=2 
  8.08e-04s  1.05e-03d  [FindBigAtMostOneAndLinearOverlap] 
  1.19e-03s  9.12e-04d  [FindBigVerticalLinearOverlap] #blocks=1 #saved_nz=34 
  1.92e-04s  2.64e-04d  [FindBigHorizontalLinearOverlap] #linears=451 
  3.53e-04s  2.69e-05d  [MergeClauses] #num_collisions=74 #num_merges=74 #num_saved_literals=180 
  8.80e-04s  0.00e+00d  [DetectDominanceRelations] 
  3.22e-03s  0.00e+00d  [PresolveToFixPoint] #num_loops=2 #num_dual_strengthening=1 
  3.21e-05s  0.00e+00d  [MergeNoOverlap] 
  3.31e-05s  0.00e+00d  [MergeNoOverlap2D] 

Presolve summary:
  - 37 affine relations were detected.
  - rule 'TODO dual: only one blocking constraint?' was applied 887 times.
  - rule 'TODO linear inclusion: superset is equality' was applied 211 times.
  - rule 'affine: new relation' was applied 37 times.
  - rule 'at_most_one: removed literals' was applied 41 times.
  - rule 'at_most_one: size one' was applied 40 times.
  - rule 'at_most_one: transformed into max clique' was applied 2 times.
  - rule 'bool_or: implications' was applied 83 times.
  - rule 'bool_or: only one literal' was applied 12 times.
  - rule 'bool_or: removed enforcement literal' was applied 621 times.
  - rule 'clauses: transformed into exactly one' was applied 5 times.
  - rule 'deductions: 913 stored' was applied 1 time.
  - rule 'duplicate: merged rhs of linear constraint' was applied 8 times.
  - rule 'duplicate: removed constraint' was applied 9 times.
  - rule 'enforcement: false literal' was applied 32 times.
  - rule 'enforcement: true literal' was applied 6 times.
  - rule 'exactly_one: removed literals' was applied 32 times.
  - rule 'exactly_one: satisfied' was applied 3 times.
  - rule 'exactly_one: singleton' was applied 2 times.
  - rule 'exactly_one: size two' was applied 30 times.
  - rule 'exactly_one: x and not(x)' was applied 4 times.
  - rule 'incompatible linear: add implication' was applied 132 times.
  - rule 'linear + amo: empty after processing' was applied 6 times.
  - rule 'linear + amo: extracted enforcement literal' was applied 58 times.
  - rule 'linear inclusion: redundant containing constraint' was applied 3 times.
  - rule 'linear inclusion: redundant included constraint' was applied 3 times.
  - rule 'linear inclusion: sparsify superset' was applied 1 time.
  - rule 'linear matrix: common vertical rectangle' was applied 9 times.
  - rule 'linear1: x in domain' was applied 26 times.
  - rule 'linear2: convert ax + by != cte to clauses' was applied 262 times.
  - rule 'linear2: convert implied ax + by == cte to clauses' was applied 130 times.
  - rule 'linear2: implied ax + by = cte has only one solution' was applied 8 times.
  - rule 'linear: always true' was applied 420 times.
  - rule 'linear: empty' was applied 1 time.
  - rule 'linear: extracted at most one (max)' was applied 1 time.
  - rule 'linear: fixed or dup variables' was applied 879 times.
  - rule 'linear: negative clause' was applied 1'299 times.
  - rule 'linear: negative reified and' was applied 78 times.
  - rule 'linear: never in domain' was applied 6 times.
  - rule 'linear: positive at most one' was applied 34 times.
  - rule 'linear: reduced variable domains' was applied 10 times.
  - rule 'linear: remapped using affine relations' was applied 22 times.
  - rule 'new_bool: integer encoding' was applied 24 times.
  - rule 'presolve: 74 unused variables removed.' was applied 1 time.
  - rule 'presolve: iteration' was applied 3 times.
  - rule 'probing: bool_or reduced to implication' was applied 39 times.
  - rule 'probing: simplified clauses' was applied 5 times.
  - rule 'setppc: bool_or in at_most_one' was applied 12 times.
  - rule 'setppc: removed dominated constraints' was applied 91 times.
  - rule 'variables: add encoding constraint' was applied 24 times.

Presolved satisfaction model '': (model_fingerprint: 0x4702872dc869330)
#Variables: 528 (453 primary variables)
  - 519 Booleans in [0,1]
  - 9 in [0,2]
#kAtMostOne: 55 (#literals: 226)
#kBoolAnd: 282 (#enforced: 282) (#literals: 754)
#kBoolAndClauses: 74 (#enforced: 74 #multi: 74) (#literals: 328)
#kBoolOr: 1'620 (#literals: 4'900)
#kExactlyOne: 59 (#literals: 223)
#kLinear1: 48 (#enforced: 48)
#kLinearN: 811 (#enforced: 120) (#terms: 5'610)
[Symmetry] Graph for symmetry has 4'269 nodes and 13'521 arcs.
[Symmetry] Symmetry computation done. time: 0.000847567 dtime: 0.00140423

Preloading model.
#Model   0.10s var:528/528 constraints:2949/2949

Starting search at 0.10s with 4 workers.
3 full problem subsolvers: [default_lp, max_lp, no_lp]
1 first solution subsolver: [fj]
2 interleaved subsolvers: [feasibility_pump, rins/rens]
2 helper subsolvers: [neighborhood_helper, synchronization_agent]

#Model  36.22s var:527/528 constraints:2947/2949
#Model 103.11s var:526/528 constraints:2945/2949
#Model 137.97s var:525/528 constraints:2943/2949
#Model 164.12s var:524/528 constraints:2941/2949
#Model 204.05s var:523/528 constraints:2939/2949
#Model 419.34s var:522/528 constraints:2922/2949
#Model 447.34s var:519/528 constraints:2903/2949
#Model 726.11s var:518/528 constraints:2901/2949
#Model 796.57s var:517/528 constraints:2899/2949
#Model 1045.13s var:515/528 constraints:2898/2949
#Model 1049.26s var:514/528 constraints:2881/2949
#Model 1065.54s var:513/528 constraints:2880/2949
#Model 1093.65s var:512/528 constraints:2879/2949
#Model 1278.08s var:511/528 constraints:2878/2949
#Model 1281.15s var:510/528 constraints:2859/2949
#Model 1293.34s var:509/528 constraints:2839/2949
#Model 1293.48s var:503/528 constraints:2787/2949
#Model 1391.22s var:502/528 constraints:2767/2949
#Model 1415.48s var:501/528 constraints:2747/2949
#Model 1420.58s var:500/528 constraints:2733/2949
#Model 1435.74s var:499/528 constraints:2708/2949
#Model 1436.71s var:469/528 constraints:2363/2949
#Done  1436.83s no_lp

Task timing                   n [     min,      max]      avg      dev     time         n [     min,      max]      avg      dev    dtime
        'default_lp':         1 [  23.95m,   23.95m]   23.95m   0.00ns   23.95m         2 [  2.32ms,   24.13m]   12.06m   12.06m   24.13m
  'feasibility_pump':      7127 [904.70us, 163.23ms]   1.48ms   1.93ms   10.56s      7126 [288.44us, 143.94ms] 309.63us   1.70ms    2.21s
                'fj':      4964 [111.05ms, 229.17ms] 143.58ms  10.75ms   11.88m      4964 [100.00ms, 100.11ms] 100.02ms  12.36us    8.27m
            'max_lp':         1 [  23.95m,   23.95m]   23.95m   0.00ns   23.95m         2 [ 88.01ms,   27.64m]   13.82m   13.82m   27.64m
             'no_lp':         1 [  23.95m,   23.95m]   23.95m   0.00ns   23.95m         2 [  2.17ms,   46.07m]   23.03m   23.03m   46.07m
         'rins/rens':      6536 [ 24.18ms, 216.52ms] 109.04ms  40.75ms   11.88m      6536 [133.23us, 100.32ms]  67.81ms  37.62ms    7.39m

Search stats     Bools   Conflicts    Branches  Restarts  BacktrackToRoot   Backtrack     BoolPropag  IntegerPropag
  'default_lp':    519     154'184   6'218'369       765        1'034'461   1'450'483     78'422'025     76'979'262
      'max_lp':    519     110'783   7'573'082       568        1'253'469   1'676'966     94'008'138    104'554'875
       'no_lp':    519  12'000'603  17'468'948    40'613          470'200  12'428'994  1'158'584'971    272'287'954

SAT formula      Fixed  Equiv  Total  VarLeft  BinaryClauses  PermanentClauses  TemporaryClauses
  'default_lp':     59     13    519      447          2'698            19'717               401
      'max_lp':     29      3    519      487          2'930            35'333             3'558
       'no_lp':    342      3    519      174          3'240            95'188             6'869

SAT stats        ClassicMinim   LitRemoved  LitRemovedBinary   LitLearned  LitForgotten   Subsumed
  'default_lp':       135'464    1'894'624           752'851    4'059'079     2'292'126     63'398
      'max_lp':        91'038    1'072'876           583'747    2'407'697     1'214'594     39'224
       'no_lp':    10'588'511  184'692'977        59'451'863  301'318'027   241'589'975  3'127'899

Vivification       Clauses  Decisions  LitTrue  Subsumed  LitRemoved  DecisionReused  Conflicts
  'default_lp':  1'113'453  5'849'066       18    19'829     203'495         328'943      2'148
      'max_lp':  1'341'468  7'210'592        9    24'024     249'565         402'277      2'714
       'no_lp':    392'072  3'147'998       94    23'628     315'801          96'063      1'869

Clause deletion    at_true  l_and_not(l)  to_binary  sub_conflict  sub_extra  sub_decisions  sub_eager  sub_vivify  sub_probing  sub_inpro  blocked  eliminated  forgotten    promoted   conflicts
    'default_lp':   30'220           139        197        62'427        382          2'605        971      19'829        7'844     20'773        0           0     66'174     295'632     154'184
        'max_lp':   10'059           135         31        38'791        316          1'126        433      24'024        8'268     22'669        0           0     43'346     216'497     110'783
         'no_lp':   41'739           226         34     3'079'016     25'873        146'628     48'883      23'628       16'686    103'296        0           0  8'421'966  27'093'963  12'000'603

Lp stats         Component  Iterations  AddedCuts  OPTIMAL  DUAL_F.  DUAL_U.
  'default_lp':          1  16'941'238     58'500  198'202        0  100'699
      'max_lp':          1   7'131'860     70'542   30'074   79'500   18'434

Lp dimension        Final dimension of first component
  'default_lp':    339 rows, 354 columns, 7061 entries
      'max_lp':  1256 rows, 528 columns, 16388 entries

Lp debug         CutPropag  CutEqPropag   Adjust  Overflow        Bad  BadScaling
  'default_lp':          0           62  100'683         0  1'519'832           0
      'max_lp':          1           18   18'426         0  2'054'905           0

Lp pool          Constraints  Updates  Simplif  Merged  Shortened  Split  Strengthened       Cuts/Call
  'default_lp':       10'282   12'499        0       0        136      0             0  58'500/100'049
      'max_lp':       12'813   28'361        0      10        284      0         1'559  70'542/139'280

Lp Cut            max_lp  default_lp
          CG_FF:     110         619
           CG_K:       7         318
          CG_KL:       5         277
           CG_R:      55         641
          CG_RB:       -          33
         CG_RBP:       -          17
         Clique:     442           -
             IB:      12         112
       MIR_1_FF:     766         256
        MIR_1_K:      23          66
       MIR_1_KL:      38         184
        MIR_1_R:     333         215
       MIR_1_RB:       3           -
      MIR_1_RLT:   7'249           -
       MIR_2_FF:     520         264
        MIR_2_K:     111          70
       MIR_2_KL:      80         122
        MIR_2_R:     578         312
       MIR_2_RB:       1           1
      MIR_2_RBP:       -          12
       MIR_3_FF:     170         138
        MIR_3_K:      26          26
       MIR_3_KL:      10          38
        MIR_3_R:     208         156
       MIR_3_RB:       1           4
      MIR_3_RBP:       1           4
       MIR_4_FF:      47          26
        MIR_4_K:      12           8
       MIR_4_KL:       4           9
        MIR_4_R:     194         114
       MIR_4_RB:       2           1
      MIR_4_RBP:       1           3
       MIR_5_FF:      24          12
        MIR_5_K:       4           1
       MIR_5_KL:       3           3
        MIR_5_R:     162          82
       MIR_5_RB:       3           1
      MIR_5_RBP:       2           3
       MIR_6_FF:       9           3
        MIR_6_K:       3           1
        MIR_6_R:     150          68
       MIR_6_RB:       3           -
      MIR_6_RBP:       -           3
   ZERO_HALF_FF:     516         158
    ZERO_HALF_K:      68          31
   ZERO_HALF_KL:       2          43
    ZERO_HALF_R:  58'382      54'018
   ZERO_HALF_RB:       6           3
  ZERO_HALF_RBP:     196          24

LNS stats       Improv/Calls  Closed  Difficulty  TimeLimit
  'rins/rens':     6536/6536     50%    7.66e-01       0.10

LS stats                                    Batches  Restarts/Perturbs    LinMoves   GenMoves  CompoundMoves  Bactracks  WeightUpdates  ScoreComputed
                             'fj_restart':      205                 66   7'570'457          0              0          0      4'908'485     12'463'817
                    'fj_restart_compound':      271                 78           0  3'350'329        218'380  1'565'793          6'725     51'528'386
                'fj_restart_compound_obj':      212                 66           0  2'582'323        168'746  1'206'649          5'476     40'200'457
            'fj_restart_compound_perturb':      489                 83           0  6'161'184        275'024  2'942'921         15'214     93'139'629
        'fj_restart_compound_perturb_obj':      357                 72           0  4'432'330        211'577  2'110'235         10'617     67'814'556
                       'fj_restart_decay':      319                 79  11'767'241          0              0          0        466'771      7'326'019
              'fj_restart_decay_compound':      353                 81           0  4'746'317        781'032  1'982'426          4'760     68'261'964
          'fj_restart_decay_compound_obj':      248                 72           0  3'262'585        539'419  1'361'376          3'422     47'934'335
      'fj_restart_decay_compound_perturb':      576                 89           0  7'981'982      1'314'130  3'333'692          7'709    111'665'717
  'fj_restart_decay_compound_perturb_obj':      188                 60           0  2'455'213        403'208  1'025'842          2'539     36'259'802
                   'fj_restart_decay_obj':      186                 70   6'889'020          0              0          0        271'121      4'269'448
               'fj_restart_decay_perturb':      290                 72  10'740'297          0              0          0        423'138      6'658'515
           'fj_restart_decay_perturb_obj':      254                 66   9'414'979          0              0          0        370'505      5'824'247
                         'fj_restart_obj':      431                 74  16'238'378          0              0          0     10'656'662     27'818'848
                     'fj_restart_perturb':      231                 78   8'431'277          0              0          0      5'512'095     14'506'789
                 'fj_restart_perturb_obj':      354                 63  12'956'806          0              0          0      8'756'009     23'065'163

Solution repositories    Added  Queried  Synchro
    'alternative_path':      0        0        0
      'best_solutions':      0        0        0
   'fj solution hints':  1'161        0    1'161
        'lp solutions':  1'082    6'536    1'077
                'pump':      0        0

Improving bounds shared    Num  Sym
            'default_lp':   10    0
                'max_lp':   12    0
                 'no_lp':  244    0

Clauses shared    #Exported  #Imported  #BinaryRead  #BinaryTotal
   'default_lp':      6'232     80'388        1'321         1'337
       'max_lp':      7'975     78'415        1'063         1'337
        'no_lp':     76'766     12'608        1'333         1'337

LRAT_status: NA
CpSolverResponse summary:
status: INFEASIBLE
objective: NA
best_bound: NA
integers: 354
booleans: 519
conflicts: 12000603
branches: 17468948
propagations: 1158584971
integer_propagations: 272287954
restarts: 40613
lp_iterations: 0
walltime: 1436.89
usertime: 1436.89
deterministic_time: 6812.28
gap_integral: 0

{
  "board_size": 22,
  "parity_proved": 0,
  "target": 34,
  "child_id": 1947,
  "child_count": 2640,
  "partition": "unknown_pair_x_diag_plus_twos_x_diag_minus_twos",
  "build_seconds": 0.07805275917053223,
  "workers": 4,
  "requested_seed": 2026074047,
  "effective_seed": 2026074047,
  "main_diagonal_pair": [
    4,
    16
  ],
  "pair_index": 83,
  "diag_plus_twos": 17,
  "diag_minus_twos": 15,
  "pair_excess": 0,
  "residual_certificate_slack": 112,
  "analytic_minimum_line_defect": 22,
  "analytic_defect_details": {
    "row_costs": {
      "12": 6,
      "13": 3,
      "14": 0,
      "15": 0,
      "16": 0,
      "17": 0
    },
    "column_costs": {
      "12": 6,
      "13": 3,
      "14": 0,
      "15": 0,
      "16": 0,
      "17": 0
    },
    "plus_cost": 0,
    "minus_cost": 22,
    "row_column_minimum": 0
  },
  "maximal_line_constraints": 2455,
  "analytic_infeasible": false,
  "allowed_points": 242,
  "status": "INFEASIBLE",
  "proof_method": "cp_sat_all_lines_with_certificate_profile_cuts",
  "elapsed_seconds": 1436.8855695724487,
  "branches": 17468948,
  "conflicts": 12000603
}
